;; ===================== PROJECTED CANON (QE) =====================
;; Each clause below is entailed by Proj = ∃W.F over the canonical vocabulary.
;; Units appear first for clarity; OR-clauses (SAT-filtered) follow.
;; ==================================================================

;; Unit Bool constraints (entailed)
(assert (not patient_has_diagnosis_of_acute_myocardial_infarction_inthepast6months))
(assert (not patient_will_undergo_coronary_artery_bypass_graft_inthefuture3months))
(assert (not patient_will_undergo_percutaneous_coronary_intervention_inthefuture3months))
(assert (not patient_has_finding_of_tachycardia_now))
(assert (not patient_has_finding_of_secondary_hyperlipidemia_now))
(assert (not patient_has_diagnosis_of_familial_hypercholesterolemia_now))
(assert (not patient_has_finding_of_diabetic_poor_control_now))
(assert (not patient_has_finding_of_decreased_liver_function_now))
(assert (not patient_has_finding_of_muscle_pain_now))
(assert (not patient_is_pregnant_now))
(assert (not patient_is_breastfeeding_now))
(assert (not patient_has_finding_of_alcohol_abuse_inthepast5years))
(assert (not patient_is_taking_cholestyramine_containing_product_now))
(assert (not patient_is_taking_clarithromycin_containing_product_now))
(assert (not patient_is_taking_clofibrate_containing_product_now))
(assert (not patient_is_exposed_to_colestipol_hydrochloride_now))
(assert (not patient_is_taking_cyclosporine_containing_product_now))
(assert (not patient_is_taking_erythromycin_containing_product_now))
(assert (not patient_is_exposed_to_erythromycin_ethylsuccinate_now))
(assert (not patient_is_taking_ezetimibe_containing_product_now))
(assert (not patient_is_taking_fenofibrate_containing_product_now))
(assert (not patient_is_exposed_to_fish_oil_now))
(assert (not patient_is_taking_fluconazole_containing_product_now))
(assert (not patient_is_taking_fluvastatin_containing_product_now))
(assert (not patient_is_exposed_to_gemfibrozil_now))
(assert (not patient_is_taking_itraconazole_containing_product_now))
(assert (not patient_is_taking_ketoconazole_containing_product_now))
(assert (not patient_is_taking_lovastatin_containing_product_now))
(assert (not patient_is_exposed_to_niacin_now))
(assert (not patient_is_taking_pravastatin_containing_product_now))
(assert (not patient_is_taking_probucol_containing_product_now))
(assert (not patient_is_exposed_to_protease_inhibitor_now))
(assert (not patient_is_taking_simvastatin_containing_product_now))
(assert (not patient_is_exposed_to_sulfaphenazole_now))
